nK = 1761;
nT = 8;
nI = 21;
L = 29;
TT = 361;
np = 1;
nc = 3;
b = [35, 22, 44, 20, 65, 39, 51, 21, 70, 58, 36, 28, 38, 63, 21, 42, 21, 49, 56, 70, 64];
d = [144, 143, 111, 62, 145, 63, 145, 59, 115, 109, 56, 132, 85, 148, 32, 84, 42, 99, 137, 108, 116];
m = [1.5, 1.8, 2.4, 2, 2.5, 2.2, 2.1, 1.4, 2.2, 1.8, 1.8, 1, 1.4, 2.3, 2.2, 1.2, 1.6, 1.9, 2, 2.2, 1.7];
pt = [0.33, 0.35, 0.23, 0.33, 0.28, 0.23, 0.2, 0.27];
st = [16.83, 15.4, 12.65, 19.14, 14.56, 11.27, 8.8, 13.5];
arc = {<1, 0, 1, 1, 0, 0, 0, [1, 1, 1, 1, 1, 1, 1, 1]>, <2, 1, 2, 1, 0, 0, 0, [1, 1, 1, 1, 1, 1, 1, 1]>, <3, 2, 3, 1, 0, 0, 0, [1, 1, 1, 1, 1, 1, 1, 1]>, <4, 3, 4, 1, 0, 0, 0, [1, 1, 1, 1, 1, 1, 1, 1]>, <5, 4, 5, 1, 0, 0, 0, [1, 1, 1, 1, 1, 1, 1, 1]>, <6, 5, 6, 1, 0, 0, 0, [1, 1, 1, 1, 1, 1, 1, 1]>, <7, 6, 7, 1, 0, 0, 0, [1, 1, 1, 1, 1, 1, 1, 1]>, <8, 7, 8, 1, 0, 0, 0, [1, 1, 1, 1, 1, 1, 1, 1]>, <9, 8, 9, 1, 0, 0, 0, [1, 1, 1, 1, 1, 1, 1, 1]>, <10, 9, 10, 1, 0, 0, 0, [1, 1, 1, 1, 1, 1, 1, 1]>, <11, 10, 11, 1, 0, 0, 0, [1, 1, 1, 1, 1, 1, 1, 1]>, <12, 11, 12, 1, 0, 0, 0, [1, 1, 1, 1, 1, 1, 1, 1]>, <13, 12, 13, 1, 0, 0, 0, [1, 1, 1, 1, 1, 1, 1, 1]>, <14, 13, 14, 1, 0, 0, 0, [1, 1, 1, 1, 1, 1, 1, 1]>, <15, 14, 15, 1, 0, 0, 0, [1, 1, 1, 1, 1, 1, 1, 1]>, <16, 15, 16, 1, 0, 0, 0, [1, 1, 1, 1, 1, 1, 1, 1]>, <17, 16, 17, 1, 0, 0, 0, [1, 1, 1, 1, 1, 1, 1, 1]>, <18, 17, 18, 1, 0, 0, 0, [1, 1, 1, 1, 1, 1, 1, 1]>, <19, 18, 19, 1, 0, 0, 0, [1, 1, 1, 1, 1, 1, 1, 1]>, <20, 19, 20, 1, 0, 0, 0, [1, 1, 1, 1, 1, 1, 1, 1]>, <21, 20, 21, 1, 0, 0, 0, [1, 1, 1, 1, 1, 1, 1, 1]>, <22, 21, 22, 1, 0, 0, 0, [1, 1, 1, 1, 1, 1, 1, 1]>, <23, 22, 23, 1, 0, 0, 0, [1, 1, 1, 1, 1, 1, 1, 1]>, <24, 23, 24, 1, 0, 0, 0, [1, 1, 1, 1, 1, 1, 1, 1]>, <25, 24, 25, 1, 0, 0, 0, [1, 1, 1, 1, 1, 1, 1, 1]>, <26, 25, 26, 1, 0, 0, 0, [1, 1, 1, 1, 1, 1, 1, 1]>, <27, 26, 27, 1, 0, 0, 0, [1, 1, 1, 1, 1, 1, 1, 1]>, <28, 27, 28, 1, 0, 0, 0, [1, 1, 1, 1, 1, 1, 1, 1]>, <29, 28, 29, 1, 0, 0, 0, [1, 1, 1, 1, 1, 1, 1, 1]>, <30, 3, 12, 9, 1, 0, 1, [0, 0, 0, 1, 1, 1, 1, 0]>, <31, 4, 13, 9, 1, 0, 1, [0, 0, 0, 1, 1, 1, 1, 0]>, <32, 5, 14, 9, 1, 0, 1, [0, 0, 0, 1, 1, 1, 1, 0]>, <33, 11, 20, 9, 1, 0, 1, [0, 0, 0, 1, 1, 1, 1, 0]>, <34, 12, 21, 9, 1, 0, 1, [0, 0, 0, 1, 1, 1, 1, 0]>, <35, 15, 24, 9, 1, 0, 1, [0, 0, 0, 1, 1, 1, 1, 0]>, <36, 16, 25, 9, 1, 0, 1, [0, 0, 0, 1, 1, 1, 1, 0]>, <37, 17, 26, 9, 1, 0, 1, [0, 0, 0, 1, 1, 1, 1, 0]>, <38, 18, 27, 9, 1, 0, 1, [0, 0, 0, 1, 1, 1, 1, 0]>, <39, 19, 28, 9, 1, 0, 1, [0, 0, 0, 1, 1, 1, 1, 0]>, <40, 20, 29, 9, 1, 0, 1, [0, 0, 0, 1, 1, 1, 1, 0]>, <41, 1, 12, 11, 2, 1, 0, [0, 0, 1, 1, 1, 1, 0, 0]>, <42, 2, 13, 11, 2, 1, 0, [0, 0, 1, 1, 1, 1, 0, 0]>, <43, 3, 14, 11, 2, 1, 0, [0, 0, 1, 1, 1, 1, 0, 0]>, <44, 4, 15, 11, 2, 1, 0, [0, 0, 1, 1, 1, 1, 0, 0]>, <45, 5, 16, 11, 2, 1, 0, [0, 0, 1, 1, 1, 1, 0, 0]>, <46, 9, 20, 11, 2, 1, 0, [0, 0, 1, 1, 1, 1, 0, 0]>, <47, 10, 21, 11, 2, 1, 0, [0, 0, 1, 1, 1, 1, 0, 0]>, <48, 11, 22, 11, 2, 1, 0, [0, 0, 1, 1, 1, 1, 0, 0]>, <49, 12, 23, 11, 2, 1, 0, [0, 0, 1, 1, 1, 1, 0, 0]>, <50, 13, 24, 11, 2, 1, 0, [0, 0, 1, 1, 1, 1, 0, 0]>, <51, 14, 25, 11, 2, 1, 0, [0, 0, 1, 1, 1, 1, 0, 0]>, <52, 15, 26, 11, 2, 1, 0, [0, 0, 1, 1, 1, 1, 0, 0]>, <53, 16, 27, 11, 2, 1, 0, [0, 0, 1, 1, 1, 1, 0, 0]>, <54, 17, 28, 11, 2, 1, 0, [0, 0, 1, 1, 1, 1, 0, 0]>, <55, 18, 29, 11, 2, 1, 0, [0, 0, 1, 1, 1, 1, 0, 0]>, <56, 3, 12, 9, 3, 0, 1, [0, 0, 0, 1, 1, 1, 1, 0]>, <57, 4, 13, 9, 3, 0, 1, [0, 0, 0, 1, 1, 1, 1, 0]>, <58, 5, 14, 9, 3, 0, 1, [0, 0, 0, 1, 1, 1, 1, 0]>, <59, 11, 20, 9, 3, 0, 1, [0, 0, 0, 1, 1, 1, 1, 0]>, <60, 12, 21, 9, 3, 0, 1, [0, 0, 0, 1, 1, 1, 1, 0]>, <61, 15, 24, 9, 3, 0, 1, [0, 0, 0, 1, 1, 1, 1, 0]>, <62, 16, 25, 9, 3, 0, 1, [0, 0, 0, 1, 1, 1, 1, 0]>, <63, 17, 26, 9, 3, 0, 1, [0, 0, 0, 1, 1, 1, 1, 0]>, <64, 18, 27, 9, 3, 0, 1, [0, 0, 0, 1, 1, 1, 1, 0]>, <65, 19, 28, 9, 3, 0, 1, [0, 0, 0, 1, 1, 1, 1, 0]>, <66, 20, 29, 9, 3, 0, 1, [0, 0, 0, 1, 1, 1, 1, 0]>, <67, 3, 12, 9, 4, 1, 0, [1, 1, 0, 0, 0, 0, 1, 1]>, <68, 4, 13, 9, 4, 1, 0, [1, 1, 0, 0, 0, 0, 1, 1]>, <69, 5, 14, 9, 4, 1, 0, [1, 1, 0, 0, 0, 0, 1, 1]>, <70, 11, 20, 9, 4, 1, 0, [1, 1, 0, 0, 0, 0, 1, 1]>, <71, 12, 21, 9, 4, 1, 0, [1, 1, 0, 0, 0, 0, 1, 1]>, <72, 15, 24, 9, 4, 1, 0, [1, 1, 0, 0, 0, 0, 1, 1]>, <73, 16, 25, 9, 4, 1, 0, [1, 1, 0, 0, 0, 0, 1, 1]>, <74, 17, 26, 9, 4, 1, 0, [1, 1, 0, 0, 0, 0, 1, 1]>, <75, 18, 27, 9, 4, 1, 0, [1, 1, 0, 0, 0, 0, 1, 1]>, <76, 19, 28, 9, 4, 1, 0, [1, 1, 0, 0, 0, 0, 1, 1]>, <77, 20, 29, 9, 4, 1, 0, [1, 1, 0, 0, 0, 0, 1, 1]>, <78, 1, 12, 11, 5, 1, 0, [1, 0, 0, 0, 0, 1, 1, 1]>, <79, 2, 13, 11, 5, 1, 0, [1, 0, 0, 0, 0, 1, 1, 1]>, <80, 3, 14, 11, 5, 1, 0, [1, 0, 0, 0, 0, 1, 1, 1]>, <81, 4, 15, 11, 5, 1, 0, [1, 0, 0, 0, 0, 1, 1, 1]>, <82, 5, 16, 11, 5, 1, 0, [1, 0, 0, 0, 0, 1, 1, 1]>, <83, 9, 20, 11, 5, 1, 0, [1, 0, 0, 0, 0, 1, 1, 1]>, <84, 10, 21, 11, 5, 1, 0, [1, 0, 0, 0, 0, 1, 1, 1]>, <85, 11, 22, 11, 5, 1, 0, [1, 0, 0, 0, 0, 1, 1, 1]>, <86, 12, 23, 11, 5, 1, 0, [1, 0, 0, 0, 0, 1, 1, 1]>, <87, 13, 24, 11, 5, 1, 0, [1, 0, 0, 0, 0, 1, 1, 1]>, <88, 14, 25, 11, 5, 1, 0, [1, 0, 0, 0, 0, 1, 1, 1]>, <89, 15, 26, 11, 5, 1, 0, [1, 0, 0, 0, 0, 1, 1, 1]>, <90, 16, 27, 11, 5, 1, 0, [1, 0, 0, 0, 0, 1, 1, 1]>, <91, 17, 28, 11, 5, 1, 0, [1, 0, 0, 0, 0, 1, 1, 1]>, <92, 18, 29, 11, 5, 1, 0, [1, 0, 0, 0, 0, 1, 1, 1]>, <93, 4, 12, 8, 6, 0, 0, [0, 1, 1, 1, 1, 0, 0, 0]>, <94, 5, 13, 8, 6, 0, 0, [0, 1, 1, 1, 1, 0, 0, 0]>, <95, 11, 19, 8, 6, 0, 0, [0, 1, 1, 1, 1, 0, 0, 0]>, <96, 12, 20, 8, 6, 0, 0, [0, 1, 1, 1, 1, 0, 0, 0]>, <97, 16, 24, 8, 6, 0, 0, [0, 1, 1, 1, 1, 0, 0, 0]>, <98, 17, 25, 8, 6, 0, 0, [0, 1, 1, 1, 1, 0, 0, 0]>, <99, 18, 26, 8, 6, 0, 0, [0, 1, 1, 1, 1, 0, 0, 0]>, <100, 19, 27, 8, 6, 0, 0, [0, 1, 1, 1, 1, 0, 0, 0]>, <101, 20, 28, 8, 6, 0, 0, [0, 1, 1, 1, 1, 0, 0, 0]>, <102, 2, 12, 10, 7, 0, 0, [1, 1, 1, 1, 0, 0, 0, 0]>, <103, 3, 13, 10, 7, 0, 0, [1, 1, 1, 1, 0, 0, 0, 0]>, <104, 4, 14, 10, 7, 0, 0, [1, 1, 1, 1, 0, 0, 0, 0]>, <105, 5, 15, 10, 7, 0, 0, [1, 1, 1, 1, 0, 0, 0, 0]>, <106, 10, 20, 10, 7, 0, 0, [1, 1, 1, 1, 0, 0, 0, 0]>, <107, 11, 21, 10, 7, 0, 0, [1, 1, 1, 1, 0, 0, 0, 0]>, <108, 12, 22, 10, 7, 0, 0, [1, 1, 1, 1, 0, 0, 0, 0]>, <109, 14, 24, 10, 7, 0, 0, [1, 1, 1, 1, 0, 0, 0, 0]>, <110, 15, 25, 10, 7, 0, 0, [1, 1, 1, 1, 0, 0, 0, 0]>, <111, 16, 26, 10, 7, 0, 0, [1, 1, 1, 1, 0, 0, 0, 0]>, <112, 17, 27, 10, 7, 0, 0, [1, 1, 1, 1, 0, 0, 0, 0]>, <113, 18, 28, 10, 7, 0, 0, [1, 1, 1, 1, 0, 0, 0, 0]>, <114, 19, 29, 10, 7, 0, 0, [1, 1, 1, 1, 0, 0, 0, 0]>, <115, 4, 11, 7, 8, 0, 1, [1, 1, 1, 1, 0, 0, 0, 0]>, <116, 5, 12, 7, 8, 0, 1, [1, 1, 1, 1, 0, 0, 0, 0]>, <117, 11, 18, 7, 8, 0, 1, [1, 1, 1, 1, 0, 0, 0, 0]>, <118, 12, 19, 7, 8, 0, 1, [1, 1, 1, 1, 0, 0, 0, 0]>, <119, 17, 24, 7, 8, 0, 1, [1, 1, 1, 1, 0, 0, 0, 0]>, <120, 18, 25, 7, 8, 0, 1, [1, 1, 1, 1, 0, 0, 0, 0]>, <121, 19, 26, 7, 8, 0, 1, [1, 1, 1, 1, 0, 0, 0, 0]>, <122, 20, 27, 7, 8, 0, 1, [1, 1, 1, 1, 0, 0, 0, 0]>, <123, 4, 12, 8, 9, 0, 0, [0, 0, 0, 1, 1, 1, 1, 0]>, <124, 5, 13, 8, 9, 0, 0, [0, 0, 0, 1, 1, 1, 1, 0]>, <125, 11, 19, 8, 9, 0, 0, [0, 0, 0, 1, 1, 1, 1, 0]>, <126, 12, 20, 8, 9, 0, 0, [0, 0, 0, 1, 1, 1, 1, 0]>, <127, 16, 24, 8, 9, 0, 0, [0, 0, 0, 1, 1, 1, 1, 0]>, <128, 17, 25, 8, 9, 0, 0, [0, 0, 0, 1, 1, 1, 1, 0]>, <129, 18, 26, 8, 9, 0, 0, [0, 0, 0, 1, 1, 1, 1, 0]>, <130, 19, 27, 8, 9, 0, 0, [0, 0, 0, 1, 1, 1, 1, 0]>, <131, 20, 28, 8, 9, 0, 0, [0, 0, 0, 1, 1, 1, 1, 0]>, <132, 4, 11, 7, 10, 0, 1, [1, 1, 0, 0, 0, 0, 1, 1]>, <133, 5, 12, 7, 10, 0, 1, [1, 1, 0, 0, 0, 0, 1, 1]>, <134, 11, 18, 7, 10, 0, 1, [1, 1, 0, 0, 0, 0, 1, 1]>, <135, 12, 19, 7, 10, 0, 1, [1, 1, 0, 0, 0, 0, 1, 1]>, <136, 17, 24, 7, 10, 0, 1, [1, 1, 0, 0, 0, 0, 1, 1]>, <137, 18, 25, 7, 10, 0, 1, [1, 1, 0, 0, 0, 0, 1, 1]>, <138, 19, 26, 7, 10, 0, 1, [1, 1, 0, 0, 0, 0, 1, 1]>, <139, 20, 27, 7, 10, 0, 1, [1, 1, 0, 0, 0, 0, 1, 1]>, <140, 3, 12, 9, 11, 1, 0, [1, 0, 0, 0, 0, 1, 1, 1]>, <141, 4, 13, 9, 11, 1, 0, [1, 0, 0, 0, 0, 1, 1, 1]>, <142, 5, 14, 9, 11, 1, 0, [1, 0, 0, 0, 0, 1, 1, 1]>, <143, 11, 20, 9, 11, 1, 0, [1, 0, 0, 0, 0, 1, 1, 1]>, <144, 12, 21, 9, 11, 1, 0, [1, 0, 0, 0, 0, 1, 1, 1]>, <145, 15, 24, 9, 11, 1, 0, [1, 0, 0, 0, 0, 1, 1, 1]>, <146, 16, 25, 9, 11, 1, 0, [1, 0, 0, 0, 0, 1, 1, 1]>, <147, 17, 26, 9, 11, 1, 0, [1, 0, 0, 0, 0, 1, 1, 1]>, <148, 18, 27, 9, 11, 1, 0, [1, 0, 0, 0, 0, 1, 1, 1]>, <149, 19, 28, 9, 11, 1, 0, [1, 0, 0, 0, 0, 1, 1, 1]>, <150, 20, 29, 9, 11, 1, 0, [1, 0, 0, 0, 0, 1, 1, 1]>, <151, 3, 12, 9, 12, 0, 0, [1, 1, 1, 0, 0, 0, 0, 1]>, <152, 4, 13, 9, 12, 0, 0, [1, 1, 1, 0, 0, 0, 0, 1]>, <153, 5, 14, 9, 12, 0, 0, [1, 1, 1, 0, 0, 0, 0, 1]>, <154, 11, 20, 9, 12, 0, 0, [1, 1, 1, 0, 0, 0, 0, 1]>, <155, 12, 21, 9, 12, 0, 0, [1, 1, 1, 0, 0, 0, 0, 1]>, <156, 15, 24, 9, 12, 0, 0, [1, 1, 1, 0, 0, 0, 0, 1]>, <157, 16, 25, 9, 12, 0, 0, [1, 1, 1, 0, 0, 0, 0, 1]>, <158, 17, 26, 9, 12, 0, 0, [1, 1, 1, 0, 0, 0, 0, 1]>, <159, 18, 27, 9, 12, 0, 0, [1, 1, 1, 0, 0, 0, 0, 1]>, <160, 19, 28, 9, 12, 0, 0, [1, 1, 1, 0, 0, 0, 0, 1]>, <161, 20, 29, 9, 12, 0, 0, [1, 1, 1, 0, 0, 0, 0, 1]>, <162, 1, 12, 11, 13, 0, 0, [1, 1, 0, 0, 0, 0, 1, 1]>, <163, 2, 13, 11, 13, 0, 0, [1, 1, 0, 0, 0, 0, 1, 1]>, <164, 3, 14, 11, 13, 0, 0, [1, 1, 0, 0, 0, 0, 1, 1]>, <165, 4, 15, 11, 13, 0, 0, [1, 1, 0, 0, 0, 0, 1, 1]>, <166, 5, 16, 11, 13, 0, 0, [1, 1, 0, 0, 0, 0, 1, 1]>, <167, 9, 20, 11, 13, 0, 0, [1, 1, 0, 0, 0, 0, 1, 1]>, <168, 10, 21, 11, 13, 0, 0, [1, 1, 0, 0, 0, 0, 1, 1]>, <169, 11, 22, 11, 13, 0, 0, [1, 1, 0, 0, 0, 0, 1, 1]>, <170, 12, 23, 11, 13, 0, 0, [1, 1, 0, 0, 0, 0, 1, 1]>, <171, 13, 24, 11, 13, 0, 0, [1, 1, 0, 0, 0, 0, 1, 1]>, <172, 14, 25, 11, 13, 0, 0, [1, 1, 0, 0, 0, 0, 1, 1]>, <173, 15, 26, 11, 13, 0, 0, [1, 1, 0, 0, 0, 0, 1, 1]>, <174, 16, 27, 11, 13, 0, 0, [1, 1, 0, 0, 0, 0, 1, 1]>, <175, 17, 28, 11, 13, 0, 0, [1, 1, 0, 0, 0, 0, 1, 1]>, <176, 18, 29, 11, 13, 0, 0, [1, 1, 0, 0, 0, 0, 1, 1]>, <177, 1, 12, 11, 14, 0, 0, [1, 1, 1, 1, 0, 0, 0, 0]>, <178, 2, 13, 11, 14, 0, 0, [1, 1, 1, 1, 0, 0, 0, 0]>, <179, 3, 14, 11, 14, 0, 0, [1, 1, 1, 1, 0, 0, 0, 0]>, <180, 4, 15, 11, 14, 0, 0, [1, 1, 1, 1, 0, 0, 0, 0]>, <181, 5, 16, 11, 14, 0, 0, [1, 1, 1, 1, 0, 0, 0, 0]>, <182, 9, 20, 11, 14, 0, 0, [1, 1, 1, 1, 0, 0, 0, 0]>, <183, 10, 21, 11, 14, 0, 0, [1, 1, 1, 1, 0, 0, 0, 0]>, <184, 11, 22, 11, 14, 0, 0, [1, 1, 1, 1, 0, 0, 0, 0]>, <185, 12, 23, 11, 14, 0, 0, [1, 1, 1, 1, 0, 0, 0, 0]>, <186, 13, 24, 11, 14, 0, 0, [1, 1, 1, 1, 0, 0, 0, 0]>, <187, 14, 25, 11, 14, 0, 0, [1, 1, 1, 1, 0, 0, 0, 0]>, <188, 15, 26, 11, 14, 0, 0, [1, 1, 1, 1, 0, 0, 0, 0]>, <189, 16, 27, 11, 14, 0, 0, [1, 1, 1, 1, 0, 0, 0, 0]>, <190, 17, 28, 11, 14, 0, 0, [1, 1, 1, 1, 0, 0, 0, 0]>, <191, 18, 29, 11, 14, 0, 0, [1, 1, 1, 1, 0, 0, 0, 0]>, <192, 0, 12, 12, 15, 0, 0, [0, 0, 0, 1, 1, 1, 1, 0]>, <193, 1, 13, 12, 15, 0, 0, [0, 0, 0, 1, 1, 1, 1, 0]>, <194, 2, 14, 12, 15, 0, 0, [0, 0, 0, 1, 1, 1, 1, 0]>, <195, 3, 15, 12, 15, 0, 0, [0, 0, 0, 1, 1, 1, 1, 0]>, <196, 4, 16, 12, 15, 0, 0, [0, 0, 0, 1, 1, 1, 1, 0]>, <197, 5, 17, 12, 15, 0, 0, [0, 0, 0, 1, 1, 1, 1, 0]>, <198, 8, 20, 12, 15, 0, 0, [0, 0, 0, 1, 1, 1, 1, 0]>, <199, 9, 21, 12, 15, 0, 0, [0, 0, 0, 1, 1, 1, 1, 0]>, <200, 10, 22, 12, 15, 0, 0, [0, 0, 0, 1, 1, 1, 1, 0]>, <201, 11, 23, 12, 15, 0, 0, [0, 0, 0, 1, 1, 1, 1, 0]>, <202, 12, 24, 12, 15, 0, 0, [0, 0, 0, 1, 1, 1, 1, 0]>, <203, 13, 25, 12, 15, 0, 0, [0, 0, 0, 1, 1, 1, 1, 0]>, <204, 14, 26, 12, 15, 0, 0, [0, 0, 0, 1, 1, 1, 1, 0]>, <205, 15, 27, 12, 15, 0, 0, [0, 0, 0, 1, 1, 1, 1, 0]>, <206, 16, 28, 12, 15, 0, 0, [0, 0, 0, 1, 1, 1, 1, 0]>, <207, 17, 29, 12, 15, 0, 0, [0, 0, 0, 1, 1, 1, 1, 0]>, <208, 1, 12, 11, 16, 0, 0, [1, 0, 0, 0, 0, 1, 1, 1]>, <209, 2, 13, 11, 16, 0, 0, [1, 0, 0, 0, 0, 1, 1, 1]>, <210, 3, 14, 11, 16, 0, 0, [1, 0, 0, 0, 0, 1, 1, 1]>, <211, 4, 15, 11, 16, 0, 0, [1, 0, 0, 0, 0, 1, 1, 1]>, <212, 5, 16, 11, 16, 0, 0, [1, 0, 0, 0, 0, 1, 1, 1]>, <213, 9, 20, 11, 16, 0, 0, [1, 0, 0, 0, 0, 1, 1, 1]>, <214, 10, 21, 11, 16, 0, 0, [1, 0, 0, 0, 0, 1, 1, 1]>, <215, 11, 22, 11, 16, 0, 0, [1, 0, 0, 0, 0, 1, 1, 1]>, <216, 12, 23, 11, 16, 0, 0, [1, 0, 0, 0, 0, 1, 1, 1]>, <217, 13, 24, 11, 16, 0, 0, [1, 0, 0, 0, 0, 1, 1, 1]>, <218, 14, 25, 11, 16, 0, 0, [1, 0, 0, 0, 0, 1, 1, 1]>, <219, 15, 26, 11, 16, 0, 0, [1, 0, 0, 0, 0, 1, 1, 1]>, <220, 16, 27, 11, 16, 0, 0, [1, 0, 0, 0, 0, 1, 1, 1]>, <221, 17, 28, 11, 16, 0, 0, [1, 0, 0, 0, 0, 1, 1, 1]>, <222, 18, 29, 11, 16, 0, 0, [1, 0, 0, 0, 0, 1, 1, 1]>, <223, 0, 12, 12, 17, 0, 1, [1, 1, 1, 1, 0, 0, 0, 0]>, <224, 1, 13, 12, 17, 0, 1, [1, 1, 1, 1, 0, 0, 0, 0]>, <225, 2, 14, 12, 17, 0, 1, [1, 1, 1, 1, 0, 0, 0, 0]>, <226, 3, 15, 12, 17, 0, 1, [1, 1, 1, 1, 0, 0, 0, 0]>, <227, 4, 16, 12, 17, 0, 1, [1, 1, 1, 1, 0, 0, 0, 0]>, <228, 5, 17, 12, 17, 0, 1, [1, 1, 1, 1, 0, 0, 0, 0]>, <229, 8, 20, 12, 17, 0, 1, [1, 1, 1, 1, 0, 0, 0, 0]>, <230, 9, 21, 12, 17, 0, 1, [1, 1, 1, 1, 0, 0, 0, 0]>, <231, 10, 22, 12, 17, 0, 1, [1, 1, 1, 1, 0, 0, 0, 0]>, <232, 11, 23, 12, 17, 0, 1, [1, 1, 1, 1, 0, 0, 0, 0]>, <233, 12, 24, 12, 17, 0, 1, [1, 1, 1, 1, 0, 0, 0, 0]>, <234, 13, 25, 12, 17, 0, 1, [1, 1, 1, 1, 0, 0, 0, 0]>, <235, 14, 26, 12, 17, 0, 1, [1, 1, 1, 1, 0, 0, 0, 0]>, <236, 15, 27, 12, 17, 0, 1, [1, 1, 1, 1, 0, 0, 0, 0]>, <237, 16, 28, 12, 17, 0, 1, [1, 1, 1, 1, 0, 0, 0, 0]>, <238, 17, 29, 12, 17, 0, 1, [1, 1, 1, 1, 0, 0, 0, 0]>, <239, 4, 12, 8, 18, 0, 0, [0, 1, 1, 1, 1, 0, 0, 0]>, <240, 5, 13, 8, 18, 0, 0, [0, 1, 1, 1, 1, 0, 0, 0]>, <241, 11, 19, 8, 18, 0, 0, [0, 1, 1, 1, 1, 0, 0, 0]>, <242, 12, 20, 8, 18, 0, 0, [0, 1, 1, 1, 1, 0, 0, 0]>, <243, 16, 24, 8, 18, 0, 0, [0, 1, 1, 1, 1, 0, 0, 0]>, <244, 17, 25, 8, 18, 0, 0, [0, 1, 1, 1, 1, 0, 0, 0]>, <245, 18, 26, 8, 18, 0, 0, [0, 1, 1, 1, 1, 0, 0, 0]>, <246, 19, 27, 8, 18, 0, 0, [0, 1, 1, 1, 1, 0, 0, 0]>, <247, 20, 28, 8, 18, 0, 0, [0, 1, 1, 1, 1, 0, 0, 0]>, <248, 4, 12, 8, 19, 0, 0, [0, 1, 1, 1, 1, 0, 0, 0]>, <249, 5, 13, 8, 19, 0, 0, [0, 1, 1, 1, 1, 0, 0, 0]>, <250, 11, 19, 8, 19, 0, 0, [0, 1, 1, 1, 1, 0, 0, 0]>, <251, 12, 20, 8, 19, 0, 0, [0, 1, 1, 1, 1, 0, 0, 0]>, <252, 16, 24, 8, 19, 0, 0, [0, 1, 1, 1, 1, 0, 0, 0]>, <253, 17, 25, 8, 19, 0, 0, [0, 1, 1, 1, 1, 0, 0, 0]>, <254, 18, 26, 8, 19, 0, 0, [0, 1, 1, 1, 1, 0, 0, 0]>, <255, 19, 27, 8, 19, 0, 0, [0, 1, 1, 1, 1, 0, 0, 0]>, <256, 20, 28, 8, 19, 0, 0, [0, 1, 1, 1, 1, 0, 0, 0]>, <257, 3, 12, 9, 20, 0, 1, [1, 1, 0, 0, 0, 0, 1, 1]>, <258, 4, 13, 9, 20, 0, 1, [1, 1, 0, 0, 0, 0, 1, 1]>, <259, 5, 14, 9, 20, 0, 1, [1, 1, 0, 0, 0, 0, 1, 1]>, <260, 11, 20, 9, 20, 0, 1, [1, 1, 0, 0, 0, 0, 1, 1]>, <261, 12, 21, 9, 20, 0, 1, [1, 1, 0, 0, 0, 0, 1, 1]>, <262, 15, 24, 9, 20, 0, 1, [1, 1, 0, 0, 0, 0, 1, 1]>, <263, 16, 25, 9, 20, 0, 1, [1, 1, 0, 0, 0, 0, 1, 1]>, <264, 17, 26, 9, 20, 0, 1, [1, 1, 0, 0, 0, 0, 1, 1]>, <265, 18, 27, 9, 20, 0, 1, [1, 1, 0, 0, 0, 0, 1, 1]>, <266, 19, 28, 9, 20, 0, 1, [1, 1, 0, 0, 0, 0, 1, 1]>, <267, 20, 29, 9, 20, 0, 1, [1, 1, 0, 0, 0, 0, 1, 1]>, <268, 2, 12, 10, 21, 0, 0, [1, 0, 0, 0, 0, 1, 1, 1]>, <269, 3, 13, 10, 21, 0, 0, [1, 0, 0, 0, 0, 1, 1, 1]>, <270, 4, 14, 10, 21, 0, 0, [1, 0, 0, 0, 0, 1, 1, 1]>, <271, 5, 15, 10, 21, 0, 0, [1, 0, 0, 0, 0, 1, 1, 1]>, <272, 10, 20, 10, 21, 0, 0, [1, 0, 0, 0, 0, 1, 1, 1]>, <273, 11, 21, 10, 21, 0, 0, [1, 0, 0, 0, 0, 1, 1, 1]>, <274, 12, 22, 10, 21, 0, 0, [1, 0, 0, 0, 0, 1, 1, 1]>, <275, 14, 24, 10, 21, 0, 0, [1, 0, 0, 0, 0, 1, 1, 1]>, <276, 15, 25, 10, 21, 0, 0, [1, 0, 0, 0, 0, 1, 1, 1]>, <277, 16, 26, 10, 21, 0, 0, [1, 0, 0, 0, 0, 1, 1, 1]>, <278, 17, 27, 10, 21, 0, 0, [1, 0, 0, 0, 0, 1, 1, 1]>, <279, 18, 28, 10, 21, 0, 0, [1, 0, 0, 0, 0, 1, 1, 1]>, <280, 19, 29, 10, 21, 0, 0, [1, 0, 0, 0, 0, 1, 1, 1]>};
